\ENCODING=ISO-8859-1
\Problem name: ilog.cplex

Maximize
 obj: 885 x(0)#0 + 797 x(1)#1 + 975 x(2)#2 + 504 x(3)#3 + 705 x(4)#4
      + 894 x(5)#5 + 705 x(6)#6 + 796 x(7)#7 + 562 x(8)#8 + 773 x(9)#9
      + 594 x(10)#10 + 867 x(11)#11 + 552 x(12)#12 + 979 x(13)#13
      + 499 x(14)#14 + 893 x(15)#15 + 582 x(16)#16 + 847 x(17)#17
      + 465 x(18)#18 + 873 x(19)#19 + 739 x(20)#20 + 571 x(21)#21
      + 1056 x(22)#22 + 614 x(23)#23 + 822 x(24)#24 + 686 x(25)#25
      + 855 x(26)#26 + 675 x(27)#27 + 792 x(28)#28 + 480 x(29)#29
      + 895 x(30)#30 + 1017 x(31)#31 + 1000 x(32)#32 + 1100 x(33)#33
      + 702 x(34)#34 + 615 x(35)#35 + 908 x(36)#36 + 839 x(37)#37
      + 491 x(38)#38 + 550 x(39)#39 + 716 x(40)#40 + 1030 x(41)#41
      + 432 x(42)#42 + 893 x(43)#43 + 421 x(44)#44 + 816 x(45)#45
      + 987 x(46)#46 + 760 x(47)#47 + 688 x(48)#48 + 527 x(49)#49
      + 912 x(50)#50 + 725 x(51)#51 + 802 x(52)#52 + 314 x(53)#53
      + 1007 x(54)#54 + 526 x(55)#55 + 717 x(56)#56 + 1212 x(57)#57
      + 976 x(58)#58 + 312 x(59)#59 + 1040 x(60)#60 + 1051 x(61)#61
      + 640 x(62)#62 + 729 x(63)#63 + 726 x(64)#64 + 1049 x(65)#65
      + 721 x(66)#66 + 958 x(67)#67 + 892 x(68)#68 + 967 x(69)#69
      + 523 x(70)#70 + 962 x(71)#71 + 740 x(72)#72 + 822 x(73)#73
      + 1025 x(74)#74 + 630 x(75)#75 + 695 x(76)#76 + 768 x(77)#77
      + 770 x(78)#78 + 747 x(79)#79 + 775 x(80)#80 + 831 x(81)#81
      + 664 x(82)#82 + 975 x(83)#83 + 883 x(84)#84 + 985 x(85)#85
      + 818 x(86)#86 + 738 x(87)#87 + 787 x(88)#88 + 718 x(89)#89
      + 977 x(90)#90 + 490 x(91)#91 + 646 x(92)#92 + 944 x(93)#93
      + 925 x(94)#94 + 546 x(95)#95 + 874 x(96)#96 + 601 x(97)#97
      + 784 x(98)#98 + 873 x(99)#99 + 529 x(100)#100 + 991 x(101)#101
      + 701 x(102)#102 + 530 x(103)#103 + 627 x(104)#104 + 704 x(105)#105
      + 963 x(106)#106 + 1199 x(107)#107 + 987 x(108)#108 + 569 x(109)#109
      + 876 x(110)#110 + 332 x(111)#111 + 824 x(112)#112 + 711 x(113)#113
      + 723 x(114)#114 + 380 x(115)#115 + 405 x(116)#116 + 578 x(117)#117
      + 821 x(118)#118 + 910 x(119)#119 + 812 x(120)#120 + 684 x(121)#121
      + 586 x(122)#122 + 763 x(123)#123 + 902 x(124)#124 + 460 x(125)#125
      + 749 x(126)#126 + 405 x(127)#127 + 979 x(128)#128 + 645 x(129)#129
      + 920 x(130)#130 + 1102 x(131)#131 + 947 x(132)#132 + 610 x(133)#133
      + 892 x(134)#134 + 475 x(135)#135 + 763 x(136)#136 + 1194 x(137)#137
      + 406 x(138)#138 + 391 x(139)#139 + 488 x(140)#140 + 730 x(141)#141
      + 769 x(142)#142 + 1029 x(143)#143 + 864 x(144)#144 + 668 x(145)#145
      + 428 x(146)#146 + 941 x(147)#147 + 1077 x(148)#148 + 691 x(149)#149
      + 704 x(150)#150 + 1092 x(151)#151 + 687 x(152)#152 + 601 x(153)#153
      + 643 x(154)#154 + 634 x(155)#155 + 600 x(156)#156 + 692 x(157)#157
      + 986 x(158)#158 + 831 x(159)#159 + 943 x(160)#160 + 797 x(161)#161
      + 671 x(162)#162 + 1287 x(163)#163 + 834 x(164)#164 + 986 x(165)#165
      + 809 x(166)#166 + 305 x(167)#167 + 573 x(168)#168 + 665 x(169)#169
      + 864 x(170)#170 + 939 x(171)#171 + 1008 x(172)#172 + 859 x(173)#173
      + 642 x(174)#174 + 468 x(175)#175 + 571 x(176)#176 + 529 x(177)#177
      + 1025 x(178)#178 + 1240 x(179)#179 + 721 x(180)#180 + 1308 x(181)#181
      + 796 x(182)#182 + 910 x(183)#183 + 498 x(184)#184 + 1067 x(185)#185
      + 1140 x(186)#186 + 864 x(187)#187 + 864 x(188)#188 + 748 x(189)#189
      + 745 x(190)#190 + 593 x(191)#191 + 897 x(192)#192 + 356 x(193)#193
      + 317 x(194)#194 + 490 x(195)#195 + 901 x(196)#196 + 551 x(197)#197
      + 595 x(198)#198 + 696 x(199)#199 + 973 x(200)#200 + 1040 x(201)#201
      + 592 x(202)#202 + 897 x(203)#203 + 882 x(204)#204 + 790 x(205)#205
      + 901 x(206)#206 + 751 x(207)#207 + 968 x(208)#208 + 779 x(209)#209
      + 912 x(210)#210 + 941 x(211)#211 + 683 x(212)#212 + 995 x(213)#213
      + 498 x(214)#214 + 857 x(215)#215 + 822 x(216)#216 + 893 x(217)#217
      + 490 x(218)#218 + 782 x(219)#219 + 700 x(220)#220 + 432 x(221)#221
      + 804 x(222)#222 + 544 x(223)#223 + 1167 x(224)#224 + 867 x(225)#225
      + 540 x(226)#226 + 500 x(227)#227 + 807 x(228)#228 + 882 x(229)#229
      + 940 x(230)#230 + 700 x(231)#231 + 613 x(232)#232 + 670 x(233)#233
      + 846 x(234)#234 + 845 x(235)#235 + 808 x(236)#236 + 602 x(237)#237
      + 773 x(238)#238 + 772 x(239)#239 + 507 x(240)#240 + 1073 x(241)#241
      + 1134 x(242)#242 + 448 x(243)#243 + 838 x(244)#244 + 919 x(245)#245
      + 686 x(246)#246 + 770 x(247)#247 + 708 x(248)#248 + 598 x(249)#249
Subject To
 c1: 87 x(0)#0 + 487 x(1)#1 + 342 x(2)#2 + 46 x(3)#3 + 767 x(4)#4 + 280 x(5)#5
     + 452 x(6)#6 + 142 x(7)#7 + 260 x(8)#8 + 168 x(9)#9 + 331 x(10)#10
     + 13 x(11)#11 + 334 x(12)#12 + 617 x(13)#13 + 418 x(14)#14 + 404 x(15)#15
     + 171 x(16)#16 + 574 x(17)#17 + 126 x(18)#18 + 686 x(19)#19 + 42 x(20)#20
     + 543 x(21)#21 + 582 x(22)#22 + 409 x(23)#23 + 700 x(24)#24 + 358 x(25)#25
     + 118 x(26)#26 + 242 x(27)#27 + 840 x(28)#28 + 915 x(29)#29 + 465 x(30)#30
     + 962 x(31)#31 + 875 x(32)#32 + 944 x(33)#33 + 294 x(34)#34 + 843 x(35)#35
     + 858 x(36)#36 + 459 x(37)#37 + 302 x(38)#38 + 816 x(39)#39 + 7 x(40)#40
     + 583 x(41)#41 + 571 x(42)#42 + 839 x(43)#43 + 301 x(44)#44 + 545 x(45)#45
     + 368 x(46)#46 + 672 x(47)#47 + 44 x(48)#48 + 387 x(49)#49 + 672 x(50)#50
     + 730 x(51)#51 + 26 x(52)#52 + 99 x(53)#53 + 840 x(54)#54 + 82 x(55)#55
     + 280 x(56)#56 + 961 x(57)#57 + 660 x(58)#58 + 11 x(59)#59 + 784 x(60)#60
     + 723 x(61)#61 + 938 x(62)#62 + 652 x(63)#63 + 679 x(64)#64 + 400 x(65)#65
     + 992 x(66)#66 + 404 x(67)#67 + 134 x(68)#68 + 950 x(69)#69 + 126 x(70)#70
     + 358 x(71)#71 + 464 x(72)#72 + 268 x(73)#73 + 636 x(74)#74 + 212 x(75)#75
     + 428 x(76)#76 + 870 x(77)#77 + 530 x(78)#78 + 789 x(79)#79 + 88 x(80)#80
     + 244 x(81)#81 + 785 x(82)#82 + 663 x(83)#83 + 601 x(84)#84 + 658 x(85)#85
     + 780 x(86)#86 + 203 x(87)#87 + 716 x(88)#88 + 533 x(89)#89 + 390 x(90)#90
     + 371 x(91)#91 + 964 x(92)#92 + 379 x(93)#93 + 402 x(94)#94 + 411 x(95)#95
     + 850 x(96)#96 + 159 x(97)#97 + 757 x(98)#98 + 954 x(99)#99
     + 501 x(100)#100 + 790 x(101)#101 + 236 x(102)#102 + 880 x(103)#103
     + 615 x(104)#104 + 949 x(105)#105 + 741 x(106)#106 + 468 x(107)#107
     + 771 x(108)#108 + 655 x(109)#109 + 703 x(110)#110 + 421 x(111)#111
     + 191 x(112)#112 + 32 x(113)#113 + 224 x(114)#114 + 277 x(115)#115
     + 782 x(116)#116 + 651 x(117)#117 + 962 x(118)#118 + 331 x(119)#119
     + 682 x(120)#120 + 771 x(121)#121 + 653 x(122)#122 + 377 x(123)#123
     + 396 x(124)#124 + 955 x(125)#125 + 522 x(126)#126 + 201 x(127)#127
     + 580 x(128)#128 + 998 x(129)#129 + 789 x(130)#130 + 389 x(131)#131
     + 318 x(132)#132 + 806 x(133)#133 + 744 x(134)#134 + 85 x(135)#135
     + 978 x(136)#136 + 989 x(137)#137 + 55 x(138)#138 + 224 x(139)#139
     + 74 x(140)#140 + 53 x(141)#141 + 952 x(142)#142 + 822 x(143)#143
     + 314 x(144)#144 + 112 x(145)#145 + 398 x(146)#146 + 875 x(147)#147
     + 505 x(148)#148 + 62 x(149)#149 + 978 x(150)#150 + 852 x(151)#151
     + 617 x(152)#152 + 234 x(153)#153 + 368 x(154)#154 + 135 x(155)#155
     + 552 x(156)#156 + 380 x(157)#157 + 762 x(158)#158 + 108 x(159)#159
     + 901 x(160)#160 + 788 x(161)#161 + 631 x(162)#162 + 885 x(163)#163
     + 401 x(164)#164 + 603 x(165)#165 + 489 x(166)#166 + 39 x(167)#167
     + 451 x(168)#168 + 682 x(169)#169 + 554 x(170)#170 + 766 x(171)#171
     + 306 x(172)#172 + 695 x(173)#173 + 68 x(174)#174 + 377 x(175)#175
     + 487 x(176)#176 + 170 x(177)#177 + 523 x(178)#178 + 971 x(179)#179
     + 930 x(180)#180 + 892 x(181)#181 + 451 x(182)#182 + 509 x(183)#183
     + 34 x(184)#184 + 187 x(185)#185 + 872 x(186)#186 + 651 x(187)#187
     + 361 x(188)#188 + 293 x(189)#189 + 777 x(190)#190 + 45 x(191)#191
     + 845 x(192)#192 + 338 x(193)#193 + 12 x(194)#194 + 58 x(195)#195
     + 255 x(196)#196 + 343 x(197)#197 + 808 x(198)#198 + 164 x(199)#199
     + 697 x(200)#200 + 956 x(201)#201 + 165 x(202)#202 + 895 x(203)#203
     + 817 x(204)#204 + 301 x(205)#205 + 644 x(206)#206 + 63 x(207)#207
     + 352 x(208)#208 + 137 x(209)#209 + 534 x(210)#210 + 819 x(211)#211
     + 906 x(212)#212 + 460 x(213)#213 + 966 x(214)#214 + 405 x(215)#215
     + 283 x(216)#216 + 757 x(217)#217 + 381 x(218)#218 + 215 x(219)#219
     + 670 x(220)#220 + 422 x(221)#221 + 560 x(222)#222 + 285 x(223)#223
     + 820 x(224)#224 + 159 x(225)#225 + 772 x(226)#226 + 804 x(227)#227
     + 534 x(228)#228 + 738 x(229)#229 + 605 x(230)#230 + 478 x(231)#231
     + 988 x(232)#232 + 212 x(233)#233 + 394 x(234)#234 + 82 x(235)#235
     + 721 x(236)#236 + 840 x(237)#237 + 536 x(238)#238 + 446 x(239)#239
     + 316 x(240)#240 + 571 x(241)#241 + 944 x(242)#242 + 884 x(243)#243
     + 199 x(244)#244 + 335 x(245)#245 + 906 x(246)#246 + 238 x(247)#247
     + 790 x(248)#248 + 544 x(249)#249 <= 64099
 c2: 990 x(0)#0 + 321 x(1)#1 + 783 x(2)#2 + 48 x(3)#3 + 295 x(4)#4 + 226 x(5)#5
     + 307 x(6)#6 + 859 x(7)#7 + 862 x(8)#8 + 155 x(9)#9 + 656 x(10)#10
     + 746 x(11)#11 + 208 x(12)#12 + 355 x(13)#13 + 132 x(14)#14 + 945 x(15)#15
     + 926 x(16)#16 + 81 x(17)#17 + 49 x(18)#18 + 599 x(19)#19 + 792 x(20)#20
     + 223 x(21)#21 + 628 x(22)#22 + 432 x(23)#23 + 681 x(24)#24 + 607 x(25)#25
     + 571 x(26)#26 + 404 x(27)#27 + 384 x(28)#28 + 526 x(29)#29 + 281 x(30)#30
     + 13 x(31)#31 + 676 x(32)#32 + 442 x(33)#33 + 228 x(34)#34 + 931 x(35)#35
     + 734 x(36)#36 + 325 x(37)#37 + 89 x(38)#38 + 519 x(39)#39 + 651 x(40)#40
     + 727 x(41)#41 + 188 x(42)#42 + 650 x(43)#43 + 512 x(44)#44 + 533 x(45)#45
     + 545 x(46)#46 + 355 x(47)#47 + 260 x(48)#48 + 619 x(49)#49 + 753 x(50)#50
     + 115 x(51)#51 + 795 x(52)#52 + 146 x(53)#53 + 374 x(54)#54 + 617 x(55)#55
     + 16 x(56)#56 + 938 x(57)#57 + 701 x(58)#58 + 339 x(59)#59 + 544 x(60)#60
     + 686 x(61)#61 + 326 x(62)#62 + 563 x(63)#63 + 527 x(64)#64 + 794 x(65)#65
     + 917 x(66)#66 + 686 x(67)#67 + 820 x(68)#68 + 166 x(69)#69 + 254 x(70)#70
     + 619 x(71)#71 + 387 x(72)#72 + 271 x(73)#73 + 922 x(74)#74 + 280 x(75)#75
     + 910 x(76)#76 + 802 x(77)#77 + 180 x(78)#78 + 811 x(79)#79 + 610 x(80)#80
     + 864 x(81)#81 + 778 x(82)#82 + 779 x(83)#83 + 890 x(84)#84 + 631 x(85)#85
     + 412 x(86)#86 + 189 x(87)#87 + 639 x(88)#88 + 502 x(89)#89 + 958 x(90)#90
     + 597 x(91)#91 + 26 x(92)#92 + 726 x(93)#93 + 797 x(94)#94 + 531 x(95)#95
     + 815 x(96)#96 + 34 x(97)#97 + 523 x(98)#98 + 409 x(99)#99
     + 298 x(100)#100 + 693 x(101)#101 + 730 x(102)#102 + 502 x(103)#103
     + 662 x(104)#104 + 53 x(105)#105 + 570 x(106)#106 + 716 x(107)#107
     + 57 x(108)#108 + 619 x(109)#109 + 828 x(110)#110 + 313 x(111)#111
     + 537 x(112)#112 + 495 x(113)#113 + 986 x(114)#114 + 463 x(115)#115
     + 453 x(116)#116 + 382 x(117)#117 + 508 x(118)#118 + 844 x(119)#119
     + 115 x(120)#120 + 435 x(121)#121 + 164 x(122)#122 + 418 x(123)#123
     + 965 x(124)#124 + 247 x(125)#125 + 636 x(126)#126 + 116 x(127)#127
     + 155 x(128)#128 + 328 x(129)#129 + 636 x(130)#130 + 517 x(131)#131
     + 943 x(132)#132 + 674 x(133)#133 + 286 x(134)#134 + 520 x(135)#135
     + 251 x(136)#136 + 848 x(137)#137 + 69 x(138)#138 + 358 x(139)#139
     + 570 x(140)#140 + 496 x(141)#141 + 353 x(142)#142 + 564 x(143)#143
     + 712 x(144)#144 + 402 x(145)#145 + 931 x(146)#146 + 360 x(147)#147
     + 587 x(148)#148 + 999 x(149)#149 + 128 x(150)#150 + 751 x(151)#151
     + 895 x(152)#152 + 849 x(153)#153 + 832 x(154)#154 + 593 x(155)#155
     + 762 x(156)#156 + 439 x(157)#157 + 860 x(158)#158 + 223 x(159)#159
     + 44 x(160)#160 + 53 x(161)#161 + 770 x(162)#162 + 977 x(163)#163
     + 956 x(164)#164 + 773 x(165)#165 + 456 x(166)#166 + 353 x(167)#167
     + 275 x(168)#168 + 335 x(169)#169 + 506 x(170)#170 + 623 x(171)#171
     + 633 x(172)#172 + 73 x(173)#173 + 155 x(174)#174 + 668 x(175)#175
     + 225 x(176)#176 + 447 x(177)#177 + 620 x(178)#178 + 678 x(179)#179
     + 429 x(180)#180 + 906 x(181)#181 + 184 x(182)#182 + 406 x(183)#183
     + 537 x(184)#184 + 832 x(185)#185 + 931 x(186)#186 + 698 x(187)#187
     + 617 x(188)#188 + 623 x(189)#189 + 558 x(190)#190 + 155 x(191)#191
     + 626 x(192)#192 + 561 x(193)#193 + 428 x(194)#194 + 6 x(195)#195
     + 641 x(196)#196 + 173 x(197)#197 + 154 x(198)#198 + 387 x(199)#199
     + 501 x(200)#200 + 476 x(201)#201 + 960 x(202)#202 + 247 x(203)#203
     + 158 x(204)#204 + 814 x(205)#205 + 778 x(206)#206 + 362 x(207)#207
     + 506 x(208)#208 + 472 x(209)#209 + 749 x(210)#210 + 176 x(211)#211
     + 379 x(212)#212 + 654 x(213)#213 + 50 x(214)#214 + 311 x(215)#215
     + 250 x(216)#216 + 912 x(217)#217 + 348 x(218)#218 + 326 x(219)#219
     + 154 x(220)#220 + 943 x(221)#221 + 657 x(222)#222 + 384 x(223)#223
     + 692 x(224)#224 + 180 x(225)#225 + 498 x(226)#226 + 907 x(227)#227
     + 494 x(228)#228 + 28 x(229)#229 + 59 x(230)#230 + 403 x(231)#231
     + 346 x(232)#232 + 437 x(233)#233 + 434 x(234)#234 + 981 x(235)#235
     + 552 x(236)#236 + 311 x(237)#237 + 999 x(238)#238 + 85 x(239)#239
     + 939 x(240)#240 + 827 x(241)#241 + 239 x(242)#242 + 166 x(243)#243
     + 564 x(244)#244 + 621 x(245)#245 + 248 x(246)#246 + 301 x(247)#247
     + 657 x(248)#248 + 897 x(249)#249 <= 63819
 c3: 963 x(0)#0 + 156 x(1)#1 + 332 x(2)#2 + 903 x(3)#3 + 853 x(4)#4
     + 551 x(5)#5 + 147 x(6)#6 + 982 x(7)#7 + 397 x(8)#8 + 1000 x(9)#9
     + 42 x(10)#10 + 473 x(11)#11 + 227 x(12)#12 + 891 x(13)#13 + 338 x(14)#14
     + 131 x(15)#15 + 381 x(16)#16 + 361 x(17)#17 + 792 x(18)#18 + 516 x(19)#19
     + 736 x(20)#20 + 677 x(21)#21 + 718 x(22)#22 + 770 x(23)#23 + 160 x(24)#24
     + 977 x(25)#25 + 145 x(26)#26 + 542 x(27)#27 + 832 x(28)#28 + 214 x(29)#29
     + 192 x(30)#30 + 803 x(31)#31 + 577 x(32)#32 + 348 x(33)#33 + 839 x(34)#34
     + 135 x(35)#35 + 219 x(36)#36 + 695 x(37)#37 + 7 x(38)#38 + 246 x(39)#39
     + 156 x(40)#40 + 854 x(41)#41 + 310 x(42)#42 + 75 x(43)#43 + 250 x(44)#44
     + 435 x(45)#45 + 885 x(46)#46 + 911 x(47)#47 + 178 x(48)#48 + 244 x(49)#49
     + 277 x(50)#50 + 437 x(51)#51 + 679 x(52)#52 + 148 x(53)#53 + 449 x(54)#54
     + 603 x(55)#55 + 810 x(56)#56 + 720 x(57)#57 + 546 x(58)#58 + 280 x(59)#59
     + 700 x(60)#60 + 450 x(61)#61 + 237 x(62)#62 + 854 x(63)#63 + 908 x(64)#64
     + 919 x(65)#65 + 861 x(66)#66 + 326 x(67)#67 + 361 x(68)#68 + 25 x(69)#69
     + 471 x(70)#70 + 998 x(71)#71 + 798 x(72)#72 + 661 x(73)#73 + 354 x(74)#74
     + 228 x(75)#75 + 25 x(76)#76 + 322 x(77)#77 + 42 x(78)#78 + 639 x(79)#79
     + 194 x(80)#80 + 733 x(81)#81 + 745 x(82)#82 + 210 x(83)#83 + 355 x(84)#84
     + 903 x(85)#85 + 388 x(86)#86 + 303 x(87)#87 + 404 x(88)#88 + 595 x(89)#89
     + 919 x(90)#90 + 757 x(91)#91 + 515 x(92)#92 + 417 x(93)#93 + 288 x(94)#94
     + 17 x(95)#95 + 902 x(96)#96 + 365 x(97)#97 + 844 x(98)#98 + 62 x(99)#99
     + 961 x(100)#100 + 916 x(101)#101 + 84 x(102)#102 + 469 x(103)#103
     + 269 x(104)#104 + 323 x(105)#105 + 725 x(106)#106 + 914 x(107)#107
     + 823 x(108)#108 + 776 x(109)#109 + 746 x(110)#110 + 156 x(111)#111
     + 948 x(112)#112 + 253 x(113)#113 + 354 x(114)#114 + 98 x(115)#115
     + 132 x(116)#116 + 288 x(117)#117 + 137 x(118)#118 + 126 x(119)#119
     + 918 x(120)#120 + 284 x(121)#121 + 447 x(122)#122 + 787 x(123)#123
     + 86 x(124)#124 + 620 x(125)#125 + 955 x(126)#126 + 238 x(127)#127
     + 190 x(128)#128 + 501 x(129)#129 + 501 x(130)#130 + 982 x(131)#131
     + 306 x(132)#132 + 145 x(133)#133 + 38 x(134)#134 + 866 x(135)#135
     + 505 x(136)#136 + 835 x(137)#137 + 704 x(138)#138 + 247 x(139)#139
     + 683 x(140)#140 + 886 x(141)#141 + 813 x(142)#142 + 974 x(143)#143
     + 416 x(144)#144 + 11 x(145)#145 + 600 x(146)#146 + 423 x(147)#147
     + 683 x(148)#148 + 814 x(149)#149 + 710 x(150)#150 + 768 x(151)#151
     + 176 x(152)#152 + 784 x(153)#153 + 579 x(154)#154 + 12 x(155)#155
     + 987 x(156)#156 + 499 x(157)#157 + 260 x(158)#158 + 436 x(159)#159
     + 628 x(160)#160 + 927 x(161)#161 + 575 x(162)#162 + 621 x(163)#163
     + 220 x(164)#164 + 959 x(165)#165 + 636 x(166)#166 + 143 x(167)#167
     + 56 x(168)#168 + 434 x(169)#169 + 139 x(170)#170 + 161 x(171)#171
     + 720 x(172)#172 + 443 x(173)#173 + 170 x(174)#174 + 421 x(175)#175
     + 798 x(176)#176 + 1000 x(177)#177 + 709 x(178)#178 + 632 x(179)#179
     + 215 x(180)#180 + 858 x(181)#181 + 4 x(182)#182 + 133 x(183)#183
     + 763 x(184)#184 + 881 x(185)#185 + 490 x(186)#186 + 430 x(187)#187
     + 404 x(188)#188 + 429 x(189)#189 + 571 x(190)#190 + 738 x(191)#191
     + 456 x(192)#192 + 28 x(193)#193 + 4 x(194)#194 + 341 x(195)#195
     + 831 x(196)#196 + 935 x(197)#197 + 599 x(198)#198 + 458 x(199)#199
     + 236 x(200)#200 + 219 x(201)#201 + 69 x(202)#202 + 953 x(203)#203
     + 419 x(204)#204 + 871 x(205)#205 + 162 x(206)#206 + 729 x(207)#207
     + 678 x(208)#208 + 227 x(209)#209 + 399 x(210)#210 + 764 x(211)#211
     + 79 x(212)#212 + 499 x(213)#213 + 26 x(214)#214 + 173 x(215)#215
     + 717 x(216)#216 + 910 x(217)#217 + 389 x(218)#218 + 866 x(219)#219
     + 56 x(220)#220 + 186 x(221)#221 + 906 x(222)#222 + 17 x(223)#223
     + 907 x(224)#224 + 971 x(225)#225 + 57 x(226)#226 + 92 x(227)#227
     + 875 x(228)#228 + 120 x(229)#229 + 759 x(230)#230 + 717 x(231)#231
     + 43 x(232)#232 + 995 x(233)#233 + 335 x(234)#234 + 280 x(235)#235
     + 269 x(236)#236 + 532 x(237)#237 + 13 x(238)#238 + 642 x(239)#239
     + 169 x(240)#240 + 788 x(241)#241 + 655 x(242)#242 + 221 x(243)#243
     + 629 x(244)#244 + 754 x(245)#245 + 665 x(246)#246 + 744 x(247)#247
     + 464 x(248)#248 + 456 x(249)#249 <= 62220
 c4: 980 x(0)#0 + 808 x(1)#1 + 735 x(2)#2 + 947 x(3)#3 + 463 x(4)#4
     + 658 x(5)#5 + 899 x(6)#6 + 477 x(7)#7 + 201 x(8)#8 + 492 x(9)#9
     + 161 x(10)#10 + 962 x(11)#11 + 827 x(12)#12 + 798 x(13)#13 + 631 x(14)#14
     + 892 x(15)#15 + 41 x(16)#16 + 388 x(17)#17 + 367 x(18)#18 + 951 x(19)#19
     + 58 x(20)#20 + 112 x(21)#21 + 997 x(22)#22 + 796 x(23)#23 + 492 x(24)#24
     + 761 x(25)#25 + 825 x(26)#26 + 270 x(27)#27 + 993 x(28)#28 + 214 x(29)#29
     + 419 x(30)#30 + 422 x(31)#31 + 231 x(32)#32 + 801 x(33)#33 + 841 x(34)#34
     + 55 x(35)#35 + 482 x(36)#36 + 179 x(37)#37 + 42 x(38)#38 + 49 x(39)#39
     + 698 x(40)#40 + 907 x(41)#41 + 264 x(42)#42 + 78 x(43)#43 + 933 x(44)#44
     + 790 x(45)#45 + 911 x(46)#46 + 590 x(47)#47 + 18 x(48)#48 + 886 x(49)#49
     + 880 x(50)#50 + 58 x(51)#51 + 514 x(52)#52 + 67 x(53)#53 + 884 x(54)#54
     + 378 x(55)#55 + 887 x(56)#56 + 201 x(57)#57 + 929 x(58)#58 + 96 x(59)#59
     + 657 x(60)#60 + 927 x(61)#61 + 454 x(62)#62 + 265 x(63)#63 + 373 x(64)#64
     + 979 x(65)#65 + 310 x(66)#66 + 791 x(67)#67 + 157 x(68)#68 + 917 x(69)#69
     + 399 x(70)#70 + 975 x(71)#71 + 541 x(72)#72 + 907 x(73)#73 + 136 x(74)#74
     + 715 x(75)#75 + 779 x(76)#76 + 526 x(77)#77 + 948 x(78)#78 + 552 x(79)#79
     + 363 x(80)#80 + 742 x(81)#81 + 48 x(82)#82 + 948 x(83)#83 + 781 x(84)#84
     + 946 x(85)#85 + 237 x(86)#86 + 983 x(87)#87 + 616 x(88)#88 + 254 x(89)#89
     + 47 x(90)#90 + 215 x(91)#91 + 955 x(92)#92 + 666 x(93)#93 + 594 x(94)#94
     + 456 x(95)#95 + 367 x(96)#96 + 607 x(97)#97 + 151 x(98)#98 + 66 x(99)#99
     + 22 x(100)#100 + 881 x(101)#101 + 954 x(102)#102 + 96 x(103)#103
     + 522 x(104)#104 + 578 x(105)#105 + 265 x(106)#106 + 594 x(107)#107
     + 485 x(108)#108 + 44 x(109)#109 + 492 x(110)#110 + 26 x(111)#111
     + 436 x(112)#112 + 980 x(113)#113 + 647 x(114)#114 + 118 x(115)#115
     + 298 x(116)#116 + 863 x(117)#117 + 153 x(118)#118 + 74 x(119)#119
     + 182 x(120)#120 + 222 x(121)#121 + 585 x(122)#122 + 779 x(123)#123
     + 829 x(124)#124 + 265 x(125)#125 + 85 x(126)#126 + 20 x(127)#127
     + 741 x(128)#128 + 309 x(129)#129 + 211 x(130)#130 + 728 x(131)#131
     + 798 x(132)#132 + 589 x(133)#133 + 916 x(134)#134 + 36 x(135)#135
     + 624 x(136)#136 + 441 x(137)#137 + 747 x(138)#138 + 298 x(139)#139
     + 588 x(140)#140 + 129 x(141)#141 + 753 x(142)#142 + 45 x(143)#143
     + 629 x(144)#144 + 288 x(145)#145 + 61 x(146)#146 + 768 x(147)#147
     + 995 x(148)#148 + 209 x(149)#149 + 182 x(150)#150 + 436 x(151)#151
     + 890 x(152)#152 + 770 x(153)#153 + 25 x(154)#154 + 109 x(155)#155
     + 335 x(156)#156 + 459 x(157)#157 + 97 x(158)#158 + 996 x(159)#159
     + 214 x(160)#160 + 532 x(161)#161 + 410 x(162)#162 + 794 x(163)#163
     + 12 x(164)#164 + 770 x(165)#165 + 411 x(166)#166 + 202 x(167)#167
     + 168 x(168)#168 + 536 x(169)#169 + 215 x(170)#170 + 580 x(171)#171
     + 432 x(172)#172 + 541 x(173)#173 + 930 x(174)#174 + 424 x(175)#175
     + 293 x(176)#176 + 178 x(177)#177 + 747 x(178)#178 + 960 x(179)#179
     + 605 x(180)#180 + 815 x(181)#181 + 798 x(182)#182 + 868 x(183)#183
     + 772 x(184)#184 + 386 x(185)#185 + 918 x(186)#186 + 156 x(187)#187
     + 946 x(188)#188 + 263 x(189)#189 + 557 x(190)#190 + 744 x(191)#191
     + 539 x(192)#192 + 86 x(193)#193 + 436 x(194)#194 + 680 x(195)#195
     + 913 x(196)#196 + 360 x(197)#197 + 793 x(198)#198 + 786 x(199)#199
     + 434 x(200)#200 + 799 x(201)#201 + 371 x(202)#202 + 663 x(203)#203
     + 545 x(204)#204 + 16 x(205)#205 + 839 x(206)#206 + 299 x(207)#207
     + 581 x(208)#208 + 985 x(209)#209 + 928 x(210)#210 + 464 x(211)#211
     + 283 x(212)#212 + 491 x(213)#213 + 696 x(214)#214 + 955 x(215)#215
     + 588 x(216)#216 + 686 x(217)#217 + 889 x(218)#218 + 577 x(219)#219
     + 478 x(220)#220 + 135 x(221)#221 + 241 x(222)#222 + 641 x(223)#223
     + 732 x(224)#224 + 138 x(225)#225 + 353 x(226)#226 + 201 x(227)#227
     + 789 x(228)#228 + 807 x(229)#229 + 333 x(230)#230 + 765 x(231)#231
     + 197 x(232)#232 + 526 x(233)#233 + 761 x(234)#234 + 99 x(235)#235
     + 334 x(236)#236 + 498 x(237)#237 + 56 x(238)#238 + 56 x(239)#239
     + 372 x(240)#240 + 943 x(241)#241 + 972 x(242)#242 + 448 x(243)#243
     + 291 x(244)#244 + 555 x(245)#245 + 492 x(246)#246 + 831 x(247)#247
     + 433 x(248)#248 + 110 x(249)#249 <= 64590
 c5: 400 x(0)#0 + 659 x(1)#1 + 395 x(2)#2 + 505 x(3)#3 + 454 x(4)#4
     + 846 x(5)#5 + 72 x(6)#6 + 680 x(7)#7 + 530 x(8)#8 + 645 x(9)#9
     + 648 x(10)#10 + 767 x(11)#11 + 527 x(12)#12 + 202 x(13)#13 + 34 x(14)#14
     + 605 x(15)#15 + 232 x(16)#16 + 681 x(17)#17 + 320 x(18)#18 + 443 x(19)#19
     + 310 x(20)#20 + 396 x(21)#21 + 579 x(22)#22 + 107 x(23)#23 + 15 x(24)#24
     + 479 x(25)#25 + 542 x(26)#26 + 1000 x(27)#27 + 26 x(28)#28 + 187 x(29)#29
     + 828 x(30)#30 + 994 x(31)#31 + 917 x(32)#32 + 627 x(33)#33 + 40 x(34)#34
     + 86 x(35)#35 + 650 x(36)#36 + 608 x(37)#37 + 336 x(38)#38 + 367 x(39)#39
     + 174 x(40)#40 + 629 x(41)#41 + 305 x(42)#42 + 639 x(43)#43 + 24 x(44)#44
     + 873 x(45)#45 + 481 x(46)#46 + 748 x(47)#47 + 705 x(48)#48 + 64 x(49)#49
     + 439 x(50)#50 + 979 x(51)#51 + 783 x(52)#52 + 809 x(53)#53 + 842 x(54)#54
     + 660 x(55)#55 + 33 x(56)#56 + 829 x(57)#57 + 596 x(58)#58 + 99 x(59)#59
     + 827 x(60)#60 + 957 x(61)#61 + 93 x(62)#62 + 730 x(63)#63 + 583 x(64)#64
     + 104 x(65)#65 + 406 x(66)#66 + 495 x(67)#67 + 743 x(68)#68 + 654 x(69)#69
     + 564 x(70)#70 + 145 x(71)#71 + 261 x(72)#72 + 776 x(73)#73 + 761 x(74)#74
     + 265 x(75)#75 + 462 x(76)#76 + 412 x(77)#77 + 642 x(78)#78 + 563 x(79)#79
     + 938 x(80)#80 + 73 x(81)#81 + 202 x(82)#82 + 281 x(83)#83 + 885 x(84)#84
     + 798 x(85)#85 + 833 x(86)#86 + 844 x(87)#87 + 75 x(88)#88 + 867 x(89)#89
     + 588 x(90)#90 + 330 x(91)#91 + 341 x(92)#92 + 165 x(93)#93 + 579 x(94)#94
     + 70 x(95)#95 + 6 x(96)#96 + 882 x(97)#97 + 365 x(98)#98 + 626 x(99)#99
     + 100 x(100)#100 + 33 x(101)#101 + 60 x(102)#102 + 316 x(103)#103
     + 375 x(104)#104 + 39 x(105)#105 + 128 x(106)#106 + 996 x(107)#107
     + 403 x(108)#108 + 464 x(109)#109 + 580 x(110)#110 + 713 x(111)#111
     + 229 x(112)#112 + 467 x(113)#113 + 74 x(114)#114 + 431 x(115)#115
     + 175 x(116)#116 + 188 x(117)#117 + 487 x(118)#118 + 793 x(119)#119
     + 492 x(120)#120 + 201 x(121)#121 + 375 x(122)#122 + 382 x(123)#123
     + 242 x(124)#124 + 84 x(125)#125 + 831 x(126)#126 + 661 x(127)#127
     + 938 x(128)#128 + 690 x(129)#129 + 132 x(130)#130 + 816 x(131)#131
     + 777 x(132)#132 + 576 x(133)#133 + 87 x(134)#134 + 82 x(135)#135
     + 940 x(136)#136 + 609 x(137)#137 + 397 x(138)#138 + 391 x(139)#139
     + 326 x(140)#140 + 695 x(141)#141 + 856 x(142)#142 + 760 x(143)#143
     + 713 x(144)#144 + 943 x(145)#145 + 95 x(146)#146 + 556 x(147)#147
     + 205 x(148)#148 + 819 x(149)#149 + 237 x(150)#150 + 237 x(151)#151
     + 475 x(152)#152 + 301 x(153)#153 + 853 x(154)#154 + 687 x(155)#155
     + 121 x(156)#156 + 537 x(157)#157 + 729 x(158)#158 + 441 x(159)#159
     + 900 x(160)#160 + 120 x(161)#161 + 876 x(162)#162 + 913 x(163)#163
     + 750 x(164)#164 + 131 x(165)#165 + 246 x(166)#166 + 697 x(167)#167
     + 149 x(168)#168 + 6 x(169)#169 + 977 x(170)#170 + 756 x(171)#171
     + 471 x(172)#172 + 320 x(173)#173 + 597 x(174)#174 + 87 x(175)#175
     + 366 x(176)#176 + 524 x(177)#177 + 720 x(178)#178 + 687 x(179)#179
     + 680 x(180)#180 + 849 x(181)#181 + 243 x(182)#182 + 494 x(183)#183
     + 291 x(184)#184 + 810 x(185)#185 + 869 x(186)#186 + 653 x(187)#187
     + 794 x(188)#188 + 900 x(189)#189 + 576 x(190)#190 + 473 x(191)#191
     + 786 x(192)#192 + 235 x(193)#193 + 341 x(194)#194 + 205 x(195)#195
     + 988 x(196)#196 + 635 x(197)#197 + 96 x(198)#198 + 547 x(199)#199
     + 800 x(200)#200 + 759 x(201)#201 + 852 x(202)#202 + 601 x(203)#203
     + 230 x(204)#204 + 876 x(205)#205 + 660 x(206)#206 + 437 x(207)#207
     + 700 x(208)#208 + 243 x(209)#209 + 518 x(210)#210 + 138 x(211)#211
     + 758 x(212)#212 + 920 x(213)#213 + 232 x(214)#214 + 709 x(215)#215
     + 737 x(216)#216 + 69 x(217)#217 + 384 x(218)#218 + 664 x(219)#219
     + 765 x(220)#220 + 334 x(221)#221 + 13 x(222)#222 + 948 x(223)#223
     + 262 x(224)#224 + 963 x(225)#225 + 151 x(226)#226 + 492 x(227)#227
     + 377 x(228)#228 + 272 x(229)#229 + 695 x(230)#230 + 838 x(231)#231
     + 999 x(232)#232 + 259 x(233)#233 + 421 x(234)#234 + 416 x(235)#235
     + 683 x(236)#236 + 146 x(237)#237 + 861 x(238)#238 + 148 x(239)#239
     + 299 x(240)#240 + 995 x(241)#241 + 473 x(242)#242 + 427 x(243)#243
     + 825 x(244)#244 + 528 x(245)#245 + 893 x(246)#246 + 691 x(247)#247
     + 222 x(248)#248 + 288 x(249)#249 <= 62855
Bounds
 0 <= x(0)#0 <= 1
 0 <= x(1)#1 <= 1
 0 <= x(2)#2 <= 1
 0 <= x(3)#3 <= 1
 0 <= x(4)#4 <= 1
 0 <= x(5)#5 <= 1
 0 <= x(6)#6 <= 1
 0 <= x(7)#7 <= 1
 0 <= x(8)#8 <= 1
 0 <= x(9)#9 <= 1
 0 <= x(10)#10 <= 1
 0 <= x(11)#11 <= 1
 0 <= x(12)#12 <= 1
 0 <= x(13)#13 <= 1
 0 <= x(14)#14 <= 1
 0 <= x(15)#15 <= 1
 0 <= x(16)#16 <= 1
 0 <= x(17)#17 <= 1
 0 <= x(18)#18 <= 1
 0 <= x(19)#19 <= 1
 0 <= x(20)#20 <= 1
 0 <= x(21)#21 <= 1
 0 <= x(22)#22 <= 1
 0 <= x(23)#23 <= 1
 0 <= x(24)#24 <= 1
 0 <= x(25)#25 <= 1
 0 <= x(26)#26 <= 1
 0 <= x(27)#27 <= 1
 0 <= x(28)#28 <= 1
 0 <= x(29)#29 <= 1
 0 <= x(30)#30 <= 1
 0 <= x(31)#31 <= 1
 0 <= x(32)#32 <= 1
 0 <= x(33)#33 <= 1
 0 <= x(34)#34 <= 1
 0 <= x(35)#35 <= 1
 0 <= x(36)#36 <= 1
 0 <= x(37)#37 <= 1
 0 <= x(38)#38 <= 1
 0 <= x(39)#39 <= 1
 0 <= x(40)#40 <= 1
 0 <= x(41)#41 <= 1
 0 <= x(42)#42 <= 1
 0 <= x(43)#43 <= 1
 0 <= x(44)#44 <= 1
 0 <= x(45)#45 <= 1
 0 <= x(46)#46 <= 1
 0 <= x(47)#47 <= 1
 0 <= x(48)#48 <= 1
 0 <= x(49)#49 <= 1
 0 <= x(50)#50 <= 1
 0 <= x(51)#51 <= 1
 0 <= x(52)#52 <= 1
 0 <= x(53)#53 <= 1
 0 <= x(54)#54 <= 1
 0 <= x(55)#55 <= 1
 0 <= x(56)#56 <= 1
 0 <= x(57)#57 <= 1
 0 <= x(58)#58 <= 1
 0 <= x(59)#59 <= 1
 0 <= x(60)#60 <= 1
 0 <= x(61)#61 <= 1
 0 <= x(62)#62 <= 1
 0 <= x(63)#63 <= 1
 0 <= x(64)#64 <= 1
 0 <= x(65)#65 <= 1
 0 <= x(66)#66 <= 1
 0 <= x(67)#67 <= 1
 0 <= x(68)#68 <= 1
 0 <= x(69)#69 <= 1
 0 <= x(70)#70 <= 1
 0 <= x(71)#71 <= 1
 0 <= x(72)#72 <= 1
 0 <= x(73)#73 <= 1
 0 <= x(74)#74 <= 1
 0 <= x(75)#75 <= 1
 0 <= x(76)#76 <= 1
 0 <= x(77)#77 <= 1
 0 <= x(78)#78 <= 1
 0 <= x(79)#79 <= 1
 0 <= x(80)#80 <= 1
 0 <= x(81)#81 <= 1
 0 <= x(82)#82 <= 1
 0 <= x(83)#83 <= 1
 0 <= x(84)#84 <= 1
 0 <= x(85)#85 <= 1
 0 <= x(86)#86 <= 1
 0 <= x(87)#87 <= 1
 0 <= x(88)#88 <= 1
 0 <= x(89)#89 <= 1
 0 <= x(90)#90 <= 1
 0 <= x(91)#91 <= 1
 0 <= x(92)#92 <= 1
 0 <= x(93)#93 <= 1
 0 <= x(94)#94 <= 1
 0 <= x(95)#95 <= 1
 0 <= x(96)#96 <= 1
 0 <= x(97)#97 <= 1
 0 <= x(98)#98 <= 1
 0 <= x(99)#99 <= 1
 0 <= x(100)#100 <= 1
 0 <= x(101)#101 <= 1
 0 <= x(102)#102 <= 1
 0 <= x(103)#103 <= 1
 0 <= x(104)#104 <= 1
 0 <= x(105)#105 <= 1
 0 <= x(106)#106 <= 1
 0 <= x(107)#107 <= 1
 0 <= x(108)#108 <= 1
 0 <= x(109)#109 <= 1
 0 <= x(110)#110 <= 1
 0 <= x(111)#111 <= 1
 0 <= x(112)#112 <= 1
 0 <= x(113)#113 <= 1
 0 <= x(114)#114 <= 1
 0 <= x(115)#115 <= 1
 0 <= x(116)#116 <= 1
 0 <= x(117)#117 <= 1
 0 <= x(118)#118 <= 1
 0 <= x(119)#119 <= 1
 0 <= x(120)#120 <= 1
 0 <= x(121)#121 <= 1
 0 <= x(122)#122 <= 1
 0 <= x(123)#123 <= 1
 0 <= x(124)#124 <= 1
 0 <= x(125)#125 <= 1
 0 <= x(126)#126 <= 1
 0 <= x(127)#127 <= 1
 0 <= x(128)#128 <= 1
 0 <= x(129)#129 <= 1
 0 <= x(130)#130 <= 1
 0 <= x(131)#131 <= 1
 0 <= x(132)#132 <= 1
 0 <= x(133)#133 <= 1
 0 <= x(134)#134 <= 1
 0 <= x(135)#135 <= 1
 0 <= x(136)#136 <= 1
 0 <= x(137)#137 <= 1
 0 <= x(138)#138 <= 1
 0 <= x(139)#139 <= 1
 0 <= x(140)#140 <= 1
 0 <= x(141)#141 <= 1
 0 <= x(142)#142 <= 1
 0 <= x(143)#143 <= 1
 0 <= x(144)#144 <= 1
 0 <= x(145)#145 <= 1
 0 <= x(146)#146 <= 1
 0 <= x(147)#147 <= 1
 0 <= x(148)#148 <= 1
 0 <= x(149)#149 <= 1
 0 <= x(150)#150 <= 1
 0 <= x(151)#151 <= 1
 0 <= x(152)#152 <= 1
 0 <= x(153)#153 <= 1
 0 <= x(154)#154 <= 1
 0 <= x(155)#155 <= 1
 0 <= x(156)#156 <= 1
 0 <= x(157)#157 <= 1
 0 <= x(158)#158 <= 1
 0 <= x(159)#159 <= 1
 0 <= x(160)#160 <= 1
 0 <= x(161)#161 <= 1
 0 <= x(162)#162 <= 1
 0 <= x(163)#163 <= 1
 0 <= x(164)#164 <= 1
 0 <= x(165)#165 <= 1
 0 <= x(166)#166 <= 1
 0 <= x(167)#167 <= 1
 0 <= x(168)#168 <= 1
 0 <= x(169)#169 <= 1
 0 <= x(170)#170 <= 1
 0 <= x(171)#171 <= 1
 0 <= x(172)#172 <= 1
 0 <= x(173)#173 <= 1
 0 <= x(174)#174 <= 1
 0 <= x(175)#175 <= 1
 0 <= x(176)#176 <= 1
 0 <= x(177)#177 <= 1
 0 <= x(178)#178 <= 1
 0 <= x(179)#179 <= 1
 0 <= x(180)#180 <= 1
 0 <= x(181)#181 <= 1
 0 <= x(182)#182 <= 1
 0 <= x(183)#183 <= 1
 0 <= x(184)#184 <= 1
 0 <= x(185)#185 <= 1
 0 <= x(186)#186 <= 1
 0 <= x(187)#187 <= 1
 0 <= x(188)#188 <= 1
 0 <= x(189)#189 <= 1
 0 <= x(190)#190 <= 1
 0 <= x(191)#191 <= 1
 0 <= x(192)#192 <= 1
 0 <= x(193)#193 <= 1
 0 <= x(194)#194 <= 1
 0 <= x(195)#195 <= 1
 0 <= x(196)#196 <= 1
 0 <= x(197)#197 <= 1
 0 <= x(198)#198 <= 1
 0 <= x(199)#199 <= 1
 0 <= x(200)#200 <= 1
 0 <= x(201)#201 <= 1
 0 <= x(202)#202 <= 1
 0 <= x(203)#203 <= 1
 0 <= x(204)#204 <= 1
 0 <= x(205)#205 <= 1
 0 <= x(206)#206 <= 1
 0 <= x(207)#207 <= 1
 0 <= x(208)#208 <= 1
 0 <= x(209)#209 <= 1
 0 <= x(210)#210 <= 1
 0 <= x(211)#211 <= 1
 0 <= x(212)#212 <= 1
 0 <= x(213)#213 <= 1
 0 <= x(214)#214 <= 1
 0 <= x(215)#215 <= 1
 0 <= x(216)#216 <= 1
 0 <= x(217)#217 <= 1
 0 <= x(218)#218 <= 1
 0 <= x(219)#219 <= 1
 0 <= x(220)#220 <= 1
 0 <= x(221)#221 <= 1
 0 <= x(222)#222 <= 1
 0 <= x(223)#223 <= 1
 0 <= x(224)#224 <= 1
 0 <= x(225)#225 <= 1
 0 <= x(226)#226 <= 1
 0 <= x(227)#227 <= 1
 0 <= x(228)#228 <= 1
 0 <= x(229)#229 <= 1
 0 <= x(230)#230 <= 1
 0 <= x(231)#231 <= 1
 0 <= x(232)#232 <= 1
 0 <= x(233)#233 <= 1
 0 <= x(234)#234 <= 1
 0 <= x(235)#235 <= 1
 0 <= x(236)#236 <= 1
 0 <= x(237)#237 <= 1
 0 <= x(238)#238 <= 1
 0 <= x(239)#239 <= 1
 0 <= x(240)#240 <= 1
 0 <= x(241)#241 <= 1
 0 <= x(242)#242 <= 1
 0 <= x(243)#243 <= 1
 0 <= x(244)#244 <= 1
 0 <= x(245)#245 <= 1
 0 <= x(246)#246 <= 1
 0 <= x(247)#247 <= 1
 0 <= x(248)#248 <= 1
 0 <= x(249)#249 <= 1
Generals
 x(0)#0  x(1)#1  x(2)#2  x(3)#3  x(4)#4  x(5)#5  x(6)#6  x(7)#7  x(8)#8 
 x(9)#9  x(10)#10  x(11)#11  x(12)#12  x(13)#13  x(14)#14  x(15)#15  x(16)#16 
 x(17)#17  x(18)#18  x(19)#19  x(20)#20  x(21)#21  x(22)#22  x(23)#23 
 x(24)#24  x(25)#25  x(26)#26  x(27)#27  x(28)#28  x(29)#29  x(30)#30 
 x(31)#31  x(32)#32  x(33)#33  x(34)#34  x(35)#35  x(36)#36  x(37)#37 
 x(38)#38  x(39)#39  x(40)#40  x(41)#41  x(42)#42  x(43)#43  x(44)#44 
 x(45)#45  x(46)#46  x(47)#47  x(48)#48  x(49)#49  x(50)#50  x(51)#51 
 x(52)#52  x(53)#53  x(54)#54  x(55)#55  x(56)#56  x(57)#57  x(58)#58 
 x(59)#59  x(60)#60  x(61)#61  x(62)#62  x(63)#63  x(64)#64  x(65)#65 
 x(66)#66  x(67)#67  x(68)#68  x(69)#69  x(70)#70  x(71)#71  x(72)#72 
 x(73)#73  x(74)#74  x(75)#75  x(76)#76  x(77)#77  x(78)#78  x(79)#79 
 x(80)#80  x(81)#81  x(82)#82  x(83)#83  x(84)#84  x(85)#85  x(86)#86 
 x(87)#87  x(88)#88  x(89)#89  x(90)#90  x(91)#91  x(92)#92  x(93)#93 
 x(94)#94  x(95)#95  x(96)#96  x(97)#97  x(98)#98  x(99)#99  x(100)#100 
 x(101)#101  x(102)#102  x(103)#103  x(104)#104  x(105)#105  x(106)#106 
 x(107)#107  x(108)#108  x(109)#109  x(110)#110  x(111)#111  x(112)#112 
 x(113)#113  x(114)#114  x(115)#115  x(116)#116  x(117)#117  x(118)#118 
 x(119)#119  x(120)#120  x(121)#121  x(122)#122  x(123)#123  x(124)#124 
 x(125)#125  x(126)#126  x(127)#127  x(128)#128  x(129)#129  x(130)#130 
 x(131)#131  x(132)#132  x(133)#133  x(134)#134  x(135)#135  x(136)#136 
 x(137)#137  x(138)#138  x(139)#139  x(140)#140  x(141)#141  x(142)#142 
 x(143)#143  x(144)#144  x(145)#145  x(146)#146  x(147)#147  x(148)#148 
 x(149)#149  x(150)#150  x(151)#151  x(152)#152  x(153)#153  x(154)#154 
 x(155)#155  x(156)#156  x(157)#157  x(158)#158  x(159)#159  x(160)#160 
 x(161)#161  x(162)#162  x(163)#163  x(164)#164  x(165)#165  x(166)#166 
 x(167)#167  x(168)#168  x(169)#169  x(170)#170  x(171)#171  x(172)#172 
 x(173)#173  x(174)#174  x(175)#175  x(176)#176  x(177)#177  x(178)#178 
 x(179)#179  x(180)#180  x(181)#181  x(182)#182  x(183)#183  x(184)#184 
 x(185)#185  x(186)#186  x(187)#187  x(188)#188  x(189)#189  x(190)#190 
 x(191)#191  x(192)#192  x(193)#193  x(194)#194  x(195)#195  x(196)#196 
 x(197)#197  x(198)#198  x(199)#199  x(200)#200  x(201)#201  x(202)#202 
 x(203)#203  x(204)#204  x(205)#205  x(206)#206  x(207)#207  x(208)#208 
 x(209)#209  x(210)#210  x(211)#211  x(212)#212  x(213)#213  x(214)#214 
 x(215)#215  x(216)#216  x(217)#217  x(218)#218  x(219)#219  x(220)#220 
 x(221)#221  x(222)#222  x(223)#223  x(224)#224  x(225)#225  x(226)#226 
 x(227)#227  x(228)#228  x(229)#229  x(230)#230  x(231)#231  x(232)#232 
 x(233)#233  x(234)#234  x(235)#235  x(236)#236  x(237)#237  x(238)#238 
 x(239)#239  x(240)#240  x(241)#241  x(242)#242  x(243)#243  x(244)#244 
 x(245)#245  x(246)#246  x(247)#247  x(248)#248  x(249)#249 
End
